# Objective value = 47
WA1n 0
WA1p 0
WA2n 1
WA2p 0
WB1n 0
WB1p 0
WB2n 1
WB2p 0
WC1n 1
WC1p 0
WC2n 1
WC2p 0
WD1n 0
WD1p 1
WD2n 0
WD2p 1
WE1n 2
WE1p 0
WE2n 1
WE2p 0
WF1n 0
WF1p 3
WG1n 7
WG1p 0
WH1n 7
WH1p 0
WI1n 7
WI1p 0
WJ1n 7
WJ1p 0
WT1n 2
WT1p 0
5 7
a 0
b 0
c 0
d 0
e 0
f 0
g 1
h 1
i 0
j 0
k 1
l 0
m 0
n 0
o 0
p 0
